10 10 3

0 288 331 412 84 154 381 456 359 236 
70 0 319 73 370 190 54 474 134 462 
205 77 0 336 279 253 457 288 282 115 
152 286 493 0 254 281 80 165 315 184 
252 270 250 438 0 498 275 218 123 415 
222 303 256 390 459 0 490 226 237 242 
389 231 474 455 89 260 0 203 50 247 
233 372 61 124 124 488 324 0 268 241 
305 436 315 427 364 117 182 254 0 75 
378 186 469 119 74 407 299 479 202 0 

228.25 0 1
228.25 1 5
228.25 2 8
228.25 3 0
228.25 4 2
228.25 5 6
228.25 6 1
228.25 7 8
228.25 8 0
228.25 9 5

